c --- [ banner ] -------------------------------------------------------------
c 
c CaDiCaL Radically Simplified CDCL SAT Solver
c Copyright (c) 2016-2021 A. Biere, M. Fleury, N. Froleyks
c 
c Version 1.5.2 a5f15211db36c3956764e18194dd5bd63bf3b5e6
c g++ (GCC) 9.3.0 -Wall -Wextra -O3 -DNDEBUG
c Fri Oct 21 01:27:37 EDT 2022 Linux gra-login3 3.10.0-1160.66.1.el7.x86_64 x86_64
c 
c --- [ limit ] --------------------------------------------------------------
c 
c setting conflict limit to 200000 conflicts (due to '200000')
c 
c --- [ parsing input ] ------------------------------------------------------
c 
c reading DIMACS file from '33.cubes1290.adj'
c opening file to read '33.cubes1290.adj'
c found 'p cnf 6160 1595478' header
c parsed 1595478 clauses in 19.59 seconds process time
c closing file '33.cubes1290.adj'
c after reading 1457566795 bytes 1390.0 MB
c 
c --- [ options ] ------------------------------------------------------------
c 
c all options are set to their default value
c 
c --- [ solving ] ------------------------------------------------------------
c 
c time measured in process time since initialization
c 
c  seconds    reductions  redundant   irredundant
c          MB     restarts       trail       variables
c            level   conflicts       glue         remaining
c 
c * 19.59 1365  0 0   0    0    0  0% 0 1595422 2403 39%
c { 20.24 1397  0 0   0    0    0  0% 0 1595422 2403 39%
c i 20.60 1417 1117 0   0   13   12 37% 1 1595422 2389 39%
c i 21.97 1472 1000 0   2   28   26 38% 3 1595422 2361 38%
c i 23.85 1493 328 0  18   91   54 27% 10 1595422 2351 38%
c i 23.99 1494 311 0  19   97   58 27% 12 1595422 2350 38%
c i 24.51 1496 268 0  24  118   73 26% 13 1595422 2349 38%
c i 25.00 1500 236 0  30  140   92 27% 17 1595422 2335 38%
c i 25.28 1500 218 0  32  154  100 27% 18 1595422 2333 38%
c i 26.07 1507 181 0  38  192  120 26% 17 1595422 2332 38%
c i 26.07 1507 180 0  38  193  120 26% 17 1595422 2331 38%
c i 26.10 1507 176 0  38  199  124 26% 17 1595422 2330 38%
c i 26.11 1507 175 0  38  200  124 26% 16 1595422 2329 38%
c i 26.42 1509 162 0  40  225  146 27% 18 1595422 2328 38%
c i 27.42 1510 136 0  55  297  191 26% 18 1595422 2327 38%
c i 27.43 1510 136 0  55  299  192 26% 18 1595422 2326 38%
c - 31.18 1428 135 1  55  300  193 26% 18 351211 2326 38%
c i 31.30 1389 135 1  55  306  197 26% 19 351211 2324 38%
c i 31.55 1389 128 1  58  353  227 26% 18 351211 2323 38%
c i 31.66 1389 126 1  58  360  233 26% 18 351211 2322 38%
c 
c  seconds     reductions  redundant   irredundant
c          MB      restarts       trail       variables
c             level   conflicts       glue         remaining
c 
c i 31.81 1390 126 1  59  368  240 26% 20 351211 2321 38%
c i 31.91 1390 125 1  65  386  251 26% 22 351211 2320 38%
c i 32.01 1390 124 1  70  403  264 26% 23 351211 2319 38%
c i 32.01 1390 124 1  70  404  264 26% 23 351211 2318 38%
c i 32.06 1390 122 1  72  412  271 26% 23 351211 2317 38%
c i 32.27 1390 117 1  79  440  287 26% 23 351211 2316 38%
c i 32.43 1390 113 1  83  459  300 26% 23 351211 2315 38%
c i 32.47 1390 113 1  83  461  301 26% 23 351211 2314 38%
c i 32.48 1390 112 1  83  464  303 26% 23 351211 2313 38%
c i 32.49 1390 112 1  83  465  303 26% 23 351211 2312 38%
c i 32.64 1390 110 1  86  487  322 26% 23 351211 2311 38%
c i 32.64 1390 110 1  86  488  322 26% 23 351211 2310 38%
c i 33.14 1390 109 1  96  527  357 26% 25 351211 2309 37%
c i 33.18 1390 108 1  96  530  359 26% 24 351211 2308 37%
c i 33.28 1390 108 1  99  538  366 26% 24 351211 2307 37%
c i 33.33 1390 107 1 101  543  369 26% 24 351211 2306 37%
c i 33.33 1390 107 1 101  544  369 26% 24 351211 2305 37%
c i 33.44 1390 103 1 104  573  383 26% 24 351211 2304 37%
c i 33.47 1390 102 1 104  582  391 26% 24 351211 2303 37%
c i 33.74 1390 101 1 106  609  412 26% 24 351211 2302 37%
c 
c  seconds     reductions  redundant   irredundant
c          MB      restarts       trail       variables
c             level   conflicts       glue         remaining
c 
c i 33.83 1390 101 1 106  614  416 26% 24 351211 2301 37%
c i 33.93 1390 101 1 106  620  420 26% 24 351211 2300 37%
c i 33.99 1390 102 1 106  637  428 26% 24 351211 2298 37%
c i 34.84 1390 101 1 125  710  495 26% 25 351211 2297 37%
c i 35.00 1390 100 1 130  725  507 26% 25 351211 2296 37%
c i 35.01 1390 99 1 130  728  509 26% 25 351211 2295 37%
c i 35.36 1390 97 1 140  766  545 26% 26 351211 2294 37%
c i 35.57 1390 96 1 146  789  557 26% 26 351211 2293 37%
c i 35.75 1390 96 1 147  807  574 26% 26 351211 2292 37%
c i 35.78 1391 96 1 148  809  575 26% 26 351211 2291 37%
c i 36.13 1390 100 1 153  865  625 26% 27 351211 2290 37%
c i 36.22 1390 99 1 158  880  639 26% 26 351211 2289 37%
c i 36.27 1390 97 1 160  895  651 26% 26 351211 2288 37%
c i 36.28 1391 97 1 160  899  653 26% 26 351211 2287 37%
c i 36.28 1391 97 1 160  900  653 26% 26 351211 2286 37%
c i 36.28 1391 97 1 160  901  653 26% 26 351211 2285 37%
c i 36.35 1391 95 1 160  927  677 26% 26 351211 2284 37%
c i 36.35 1391 95 1 160  928  677 26% 26 351211 2283 37%
c i 36.35 1391 95 1 160  929  677 26% 26 351211 2282 37%
c i 36.35 1391 95 1 160  930  677 26% 26 351211 2281 37%
c 
c  seconds    reductions  redundant   irredundant
c          MB     restarts       trail       variables
c            level   conflicts       glue         remaining
c 
c i 36.43 1390 93 1 160  961  704 26% 26 351211 2280 37%
c i 36.54 1391 93 1 162  974  716 26% 26 351211 2279 37%
c i 36.63 1391 92 1 163  995  731 27% 26 351211 2278 37%
c } 36.68 1391 92 1 163 1000  736 27% 26 351211 2278 37%
c [ 36.68 1391  0 1 163 1000  736  0% 0 351211 2278 37%
c O 36.77 1391 20 1 163 1003  738 27% 4 351211 2278 37%
c i 36.81 1391 14 1 163 1012  745 31% 9 351211 2277 37%
c i 36.83 1391 13 1 163 1018  747 31% 9 351211 2276 37%
c i 36.84 1391 14 1 163 1022  750 32% 10 351211 2275 37%
c i 36.85 1391 13 1 163 1030  752 31% 10 351211 2274 37%
c i 36.86 1391 13 1 163 1037  752 31% 10 351211 2273 37%
c i 36.86 1391 12 1 163 1042  753 31% 9 351211 2272 37%
c i 36.86 1391 11 1 163 1043  753 31% 9 351211 2271 37%
c i 36.89 1391 14 1 163 1061  766 31% 11 351211 2270 37%
c i 36.90 1391 15 1 163 1066  770 31% 12 351211 2269 37%
c i 36.94 1391 16 1 163 1091  789 31% 13 351211 2268 37%
c i 37.01 1391 17 1 163 1132  818 31% 14 351211 2267 37%
c i 37.01 1391 17 1 163 1134  819 31% 14 351211 2266 37%
c i 37.01 1391 17 1 163 1135  819 31% 14 351211 2265 37%
c i 37.03 1391 16 1 163 1173  834 31% 13 351211 2264 37%
c 
c  seconds    reductions  redundant   irredundant
c          MB     restarts       trail       variables
c            level   conflicts       glue         remaining
c 
c i 37.05 1391 15 1 163 1206  852 31% 12 351211 2263 37%
c i 37.06 1391 14 1 163 1227  863 31% 12 351211 2262 37%
c - 37.69 1538 14 2 163 1227  787 31% 12 351019 2262 37%
c i 37.74 1538 14 2 163 1245  804 31% 12 351019 2261 37%
c i 37.81 1538 15 2 163 1289  842 31% 12 351019 2260 37%
c i 37.81 1538 15 2 163 1290  842 31% 12 351019 2259 37%
c i 37.84 1538 15 2 163 1334  868 31% 13 351019 2258 37%
c i 37.85 1538 16 2 163 1350  881 31% 13 351019 2257 37%
c i 37.85 1538 16 2 163 1354  883 31% 13 351019 2256 37%
c i 37.86 1538 16 2 163 1376  899 31% 13 351019 2255 37%
c i 37.86 1538 16 2 163 1383  904 31% 13 351019 2254 37%
c i 37.89 1538 16 2 163 1426  933 31% 13 351019 2253 37%
c i 37.90 1538 16 2 163 1466  958 31% 13 351019 2252 37%
c i 37.90 1538 16 2 163 1467  958 31% 13 351019 2251 37%
c i 37.90 1538 16 2 163 1474  959 31% 13 351019 2250 37%
c i 37.90 1538 16 2 163 1475  959 31% 13 351019 2249 37%
c i 37.96 1538 15 2 163 1651 1077 31% 12 351019 2248 36%
c i 38.13 1538 13 2 164 2188 1412 31% 11 351019 2247 36%
c i 38.13 1538 13 2 164 2190 1413 31% 11 351019 2246 36%
c i 38.13 1538 13 2 164 2191 1413 31% 11 351019 2245 36%
c 
c  seconds    reductions  redundant   irredundant
c          MB     restarts       trail       variables
c            level   conflicts       glue         remaining
c 
c i 38.42 1538 23 2 164 2496 1611 31% 18 351019 2244 36%
c - 38.98 1534 27 3 164 2619 1335 31% 21 350965 2244 36%
c ] 39.65 1496 31 3 164 3002 1591 47% 23 350965 2244 36%
c { 39.65 1496 92 3 164 3002 1591 73% 26 350965 2244 36%
c F 39.66 1496 92 3 164 3004 1593 73% 26 350965 2244 36%
c i 40.11 1496 67 3 164 3481 1908 64% 21 350965 2243 36%
c i 40.34 1496 64 3 168 3633 2029 62% 21 350965 2242 36%
c i 40.36 1496 64 3 168 3653 2041 62% 21 350965 2241 36%
c i 40.83 1496 61 3 196 3931 2260 59% 22 350965 2240 36%
c - 41.64 1495 52 4 206 4474 1955 54% 20 350953 2240 36%
c i 42.27 1495 50 4 226 4776 2188 53% 20 350953 2239 36%
c i 43.02 1495 51 4 277 4991 2370 53% 21 350953 2238 36%
c p 47.48 1495 51 4 281 5003 7676 53% 21 350921 2158 35%
c d 48.03 1495 51 4 281 5003 6589 53% 21 350719 2157 35%
c # 50.82 1495 48 4 362 6005 7391 51% 21 350719 2157 35%
c - 51.50 1354 41 5 362 6792 2903 50% 19 350719 2157 35%
c } 51.62 1354 40 5 362 7003 2995 50% 19 350719 2157 35%
c [ 51.62 1354 31 5 362 7003 2995 47% 23 350719 2157 35%
c ] 51.89 1354 26 5 363 7961 3633 50% 20 350719 2157 35%
c 1 51.89 1355 26 5 363 7961 3633 50% 20 350719 2157 35%
c 
c --- [ writing output ] -----------------------------------------------------
c 
c writing simplified CNF to DIMACS file 'simp/33.cubes1290.adj.simp1'
c 
c  seconds    reductions  redundant   irredundant
c          MB     restarts       trail       variables
c            level   conflicts       glue         remaining
c 
c * 51.89 1355 26 5 363 7961 3633 50% 20 350719 2157 35%
c opening file to write 'simp/33.cubes1290.adj.simp1'
c writing 'p cnf 6160 350719' header
c closing file 'simp/33.cubes1290.adj.simp1'
c after writing 146387851 bytes 139.6 MB
c wrote 350719 clauses in 1.04 seconds process time
c 
c --- [ writing extension ] --------------------------------------------------
c 
c writing extension stack to 'simp/33.cubes1290.adj.ext1'
c opening file to write 'simp/33.cubes1290.adj.ext1'
c closing file 'simp/33.cubes1290.adj.ext1'
c after writing 13144 bytes 0.0 MB
c wrote 873 witnesses in 0.00 seconds process time
c 
c --- [ result ] -------------------------------------------------------------
c 
s SATISFIABLE
c 
c --- [ run-time profiling ] -------------------------------------------------
c 
c process time taken by individual solving procedures
c (percentage relative to process time for solving)
c 
c        27.34   84.62% search
c        23.44   72.56% unstable
c        19.59   60.62% parse
c         4.97   15.38% simplify
c         3.77   11.67% probe
c         3.25   10.05% stable
c         0.65    2.01% lucky
c         0.05    0.15% ternary
c   =================================
c        32.31   61.03% solve
c 
c last line shows process time for solving
c (percentage relative to total process time)
c 
c --- [ statistics ] ---------------------------------------------------------
c 
c chronological:              1926        24.19 %  of conflicts
c conflicts:                  7961       246.43    per second
c decisions:                 41627      1288.53    per second
c fixed:                       845        13.72 %  of all variables
c learned:                    7796        97.93 %  per conflict
c learned_lits:            1177556       100.00 %  learned literals
c minimized:                     0         0.00 %  learned literals
c shrunken:                 747252        63.46 %  learned literals
c minishrunken:              79715         6.77 %  learned literals
c propagations:            1428389         0.04 M  per second
c reduced:                    2062        25.90 %  per conflict
c rephased:                      3      2653.67    interval
c restarts:                    363        21.93    interval
c stabilizing:                   2        37.18 %  of conflicts
c substituted:                  14         0.23 %  of all variables
c subsumed:                   2338         0.07 %  of all clauses
c ternary:                     951         0.55 %  of resolved
c weakened:                     28         2.00    average size
c 
c seconds are measured in process time for solving
c 
c --- [ resources ] ----------------------------------------------------------
c 
c total process time since initialization:        52.93    seconds
c total real time since initialization:           53.48    seconds
c maximum resident set size of process:         1680.64    MB
c 
c --- [ shutting down ] ------------------------------------------------------
c 
c exit 10
WARNING! DIMACS header mismatch: wrong number of variables.
============================[ Problem Statistics ]=============================
|                                                                             |
|  Number of variables:          6120                                         |
|  Number of clauses:          350719                                         |
|  Parse time:                   2.04 s                                       |
|  Simplification time:          0.07 s                                       |
|                                                                             |
============================[ Search Statistics ]====================================================
| Conflicts |          ORIGINAL         |          LEARNT          | Num Sols |      SUBGRAPHS      |
|           |    Vars  Clauses Literals |    Limit  Clauses Lit/Cl |          | Canonical Noncanon. |
=====================================================================================================
|       117 |    6029   350736 32158003 |     2000      117     22 |        0 |        43        17 |
|       722 |    6029   351191 32167028 |     2000      722     21 |        0 |       197       472 |
|      1139 |    6029   351383 32169554 |     2000     1139     18 |        0 |       287       664 |
|      1845 |    6029   351752 32174786 |     2000     1845     16 |        0 |       457      1033 |
|      3204 |    6029   352605 32184932 |     3601     2205     14 |        0 |       696      1886 |
|      5110 |    6029   353752 32200465 |     5002     2312     11 |        0 |      1111      3033 |
|      8735 |    6029   356238 32236374 |     6301     3436     11 |        0 |      1613      5519 |
|     13003 |    6029   358798 32269559 |     7556     4559     10 |        0 |      2258      8079 |
|     21522 |    6009   364755 32334921 |     9990     4912      8 |        0 |      3097     14036 |
=====================================================================================================
Number of solutions   : 0
Canonical subgraphs   : 3639           (115 /sec)
          order  3    : 1              (125000 /sec)
          order  4    : 1              (333333 /sec)
          order  5    : 1              (166667 /sec)
          order  6    : 1              (37037 /sec)
          order  7    : 2              (8333 /sec)
          order  8    : 5              (2165 /sec)
          order  9    : 12             (520 /sec)
          order 10    : 55             (247 /sec)
          order 11    : 210            (218 /sec)
          order 12    : 936            (191 /sec)
          order 13    : 1802           (155 /sec)
          order 14    : 260            (57 /sec)
          order 15    : 136            (43 /sec)
          order 16    : 150            (39 /sec)
          order 17    : 50             (29 /sec)
          order 18    : 17             (26 /sec)
          order 19    : 0              (-nan /sec)
          order 20    : 0              (-nan /sec)
          order 21    : 0              (-nan /sec)
          order 22    : 0              (-nan /sec)
Noncanonical subgraphs: 17300          (830 /sec)
          order  3    : 0              (-nan /sec)
          order  4    : 0              (-nan /sec)
          order  5    : 0              (-nan /sec)
          order  6    : 0              (-nan /sec)
          order  7    : 0              (-nan /sec)
          order  8    : 0              (-nan /sec)
          order  9    : 0              (-nan /sec)
          order 10    : 0              (-nan /sec)
          order 11    : 0              (-nan /sec)
          order 12    : 0              (-nan /sec)
          order 13    : 2843           (8272 /sec)
          order 14    : 12971          (813 /sec)
          order 15    : 1075           (417 /sec)
          order 16    : 100            (398 /sec)
          order 17    : 311            (182 /sec)
          order 18    : 0              (-nan /sec)
          order 19    : 0              (-nan /sec)
          order 20    : 0              (-nan /sec)
          order 21    : 0              (-nan /sec)
Canonicity checking   : 31.6988 s
Noncanonicity checking: 20.8325 s
Total canonicity time : 52.5313 s
database reductions   : 7
restarts              : 101
conflicts             : 28039          (436 /sec)
decisions             : 62414          (0.00 % random) (970 /sec)
propagations          : 3027063        (47068 /sec)
conflict literals     : 684396         (56.18 % deleted)
actual reward         : 0.059062
Memory used           : 238.00 MB
CPU time              : 64.3123 s

UNSATISFIABLE
